results - Copia/sol/BA_03_deadline_heurFalse.sol
# Solution for model JobShopModel
# Objective value = 60
y[0,0,1] 1
y[0,1,0] 1
y[1,0,0] 1
y[1,1,1] 1
y[2,0,1] 1
y[2,1,1] 1
x[0,0,0,0] 0
x[0,0,0,1] 0
x[0,0,1,0] 0
x[0,0,1,1] 1
x[0,0,2,0] 0
x[0,0,2,1] 1
x[0,1,0,0] 0
x[0,1,0,1] 0
x[0,1,1,0] 0
x[0,1,1,1] 0
x[0,1,2,0] 0
x[0,1,2,1] 0
x[1,0,0,0] 0
x[1,0,0,1] 0
x[1,0,1,0] 0
x[1,0,1,1] 0
x[1,0,2,0] 0
x[1,0,2,1] 0
x[1,1,0,0] 0
x[1,1,0,1] 0
x[1,1,1,0] 0
x[1,1,1,1] 0
x[1,1,2,0] 0
x[1,1,2,1] 1
x[2,0,0,0] 0
x[2,0,0,1] 0
x[2,0,1,0] 0
x[2,0,1,1] 0
x[2,0,2,0] 0
x[2,0,2,1] 1
x[2,1,0,0] 0
x[2,1,0,1] 0
x[2,1,1,0] 0
x[2,1,1,1] 0
x[2,1,2,0] 0
x[2,1,2,1] 0
s[0,0,1] 19
s[0,1,0] 3
s[1,0,0] 10
s[1,1,1] 8
s[2,0,1] 32
s[2,1,1] 0
Z_FO 60
C49 1
C50 1
C51 1
