results - Copia/log/BA_03_deadline_heurFalse.log

Gurobi 10.0.1 (win64) logging started Thu Oct  5 12:31:34 2023

Set parameter LogFile to value "./results//log/BA_03_deadline_heurFalse.log"
Gurobi Optimizer version 10.0.1 build v10.0.1rc0 (win64)

CPU model: AMD Ryzen 7 3700X 8-Core Processor, instruction set [SSE2|AVX|AVX2]
Thread count: 8 physical cores, 16 logical processors, using up to 16 threads

Optimize a model with 52 rows, 52 columns and 145 nonzeros
Model fingerprint: 0x062bc705
Model has 1 quadratic constraint
Variable types: 0 continuous, 52 integer (45 binary)
Coefficient statistics:
  Matrix range     [1e+00, 1e+07]
  QMatrix range    [1e+00, 1e+00]
  QLMatrix range   [1e+00, 2e+00]
  Objective range  [1e+00, 1e+00]
  Bounds range     [1e+00, 1e+00]
  RHS range        [1e+00, 3e+07]
Presolve removed 33 rows and 37 columns
Presolve time: 0.00s
Presolved: 19 rows, 15 columns, 56 nonzeros
Variable types: 0 continuous, 15 integer (8 binary)

Root relaxation: objective 3.800000e+01, 4 iterations, 0.00 seconds (0.00 work units)

    Nodes    |    Current Node    |     Objective Bounds      |     Work
 Expl Unexpl |  Obj  Depth IntInf | Incumbent    BestBd   Gap | It/Node Time

     0     0   38.00000    0    4          -   38.00000      -     -    0s
H    0     0                      90.0000000   38.00000  57.8%     -    0s
H    0     0                      60.0000000   38.00000  36.7%     -    0s

Explored 1 nodes (4 simplex iterations) in 0.00 seconds (0.00 work units)
Thread count was 16 (of 16 available processors)

Solution count 2: 60 90 

Optimal solution found (tolerance 1.00e-04)
Best objective 6.000000000000e+01, best bound 6.000000000000e+01, gap 0.0000%
Warning: constraint name "precedence between 0,0 to 1,1 if x_[0,0,1,1,1]=0, i.e. 1,1 before 0,0" has a space
Warning: constraint name "precedence between 0,0 to 1,1 if x_[0,0,1,1,1]=0, i.e. 1,1 before 0,0" has a space
Warning: default constraint names used to write mps file
